DIMACS_lns/graph-1000-961.col
p edge 1000 1819
e 1 906
e 1 785
e 1 125
e 1 439
e 1 241
e 1 38
e 3 331
e 3 887
e 3 777
e 3 949
e 4 52
e 4 291
e 4 573
e 4 867
e 6 959
e 6 743
e 6 642
e 6 861
e 6 15
e 6 489
e 6 543
e 7 357
e 7 509
e 7 718
e 8 621
e 8 862
e 8 750
e 8 913
e 8 793
e 8 356
e 9 61
e 9 540
e 9 941
e 9 388
e 9 614
e 12 64
e 12 569
e 12 739
e 13 294
e 13 903
e 13 869
e 13 724
e 14 260
e 14 763
e 14 853
e 14 808
e 15 264
e 15 772
e 15 692
e 15 612
e 15 463
e 15 906
e 16 227
e 16 457
e 16 404
e 18 418
e 18 63
e 18 33
e 19 186
e 19 724
e 19 548
e 20 544
e 20 750
e 20 715
e 20 746
e 21 601
e 21 720
e 21 97
e 21 932
e 21 72
e 23 586
e 23 614
e 23 815
e 24 66
e 24 691
e 24 27
e 24 786
e 25 866
e 25 747
e 25 465
e 25 751
e 25 736
e 25 524
e 26 216
e 26 454
e 26 931
e 27 408
e 27 823
e 27 275
e 29 653
e 29 608
e 29 254
e 30 659
e 30 882
e 30 782
e 30 785
e 30 214
e 32 816
e 32 125
e 32 236
e 32 869
e 33 849
e 33 153
e 33 547
e 34 954
e 34 892
e 34 776
e 34 489
e 35 76
e 35 279
e 35 156
e 35 921
e 36 199
e 36 203
e 36 384
e 38 725
e 38 101
e 38 859
e 38 806
e 38 456
e 38 166
e 41 578
e 41 751
e 41 799
e 41 168
e 41 503
e 44 310
e 44 332
e 44 383
e 44 347
e 44 708
e 46 755
e 46 486
e 46 612
e 46 133
e 46 172
e 46 301
e 46 841
e 46 661
e 46 814
e 46 152
e 46 225
e 47 117
e 47 409
e 47 705
e 47 389
e 47 622
e 50 96
e 50 512
e 50 901
e 50 990
e 51 400
e 51 582
e 51 572
e 51 799
e 51 123
e 51 968
e 51 147
e 51 573
e 52 552
e 52 247
e 56 765
e 56 741
e 56 793
e 57 648
e 57 664
e 57 646
e 58 785
e 58 411
e 58 346
e 58 587
e 58 601
e 58 463
e 60 579
e 60 690
e 60 601
e 60 264
e 61 398
e 61 674
e 61 807
e 63 762
e 63 933
e 63 346
e 64 751
e 64 120
e 64 677
e 66 789
e 66 944
e 66 552
e 67 471
e 67 911
e 67 403
e 67 205
e 67 328
e 68 543
e 68 884
e 68 606
e 68 580
e 68 675
e 68 179
e 68 495
e 69 600
e 69 133
e 69 792
e 69 193
e 70 913
e 70 138
e 70 77
e 70 701
e 70 591
e 72 973
e 72 931
e 72 422
e 72 269
e 73 431
e 73 488
e 73 891
e 73 108
e 73 595
e 74 536
e 74 418
e 74 476
e 74 334
e 74 551
e 74 705
e 75 438
e 75 323
e 75 463
e 76 622
e 76 708
e 76 635
e 76 192
e 77 324
e 77 568
e 77 109
e 78 418
e 78 108
e 78 681
e 79 614
e 79 843
e 79 510
e 80 902
e 80 138
e 80 651
e 82 812
e 82 601
e 82 935
e 82 216
e 82 103
e 83 224
e 83 931
e 83 964
e 84 912
e 84 501
e 84 902
e 84 705
e 84 656
e 85 915
e 85 301
e 85 847
e 85 624
e 85 517
e 88 349
e 88 986
e 88 465
e 89 200
e 89 432
e 89 853
e 89 823
e 89 256
e 89 437
e 89 217
e 92 228
e 92 814
e 92 170
e 92 747
e 95 458
e 95 275
e 95 967
e 96 526
e 96 382
e 97 970
e 97 852
e 97 634
e 97 580
e 97 798
e 99 616
e 99 408
e 99 393
e 99 560
e 100 869
e 100 529
e 100 124
e 100 106
e 100 837
e 100 562
e 100 210
e 101 988
e 101 908
e 101 112
e 101 850
e 102 111
e 102 186
e 102 934
e 102 566
e 102 807
e 103 615
e 103 931
e 103 664
e 103 379
e 105 989
e 105 168
e 105 340
e 105 940
e 105 486
e 105 647
e 106 222
e 106 648
e 107 602
e 107 887
e 107 688
e 107 816
e 107 372
e 107 500
e 108 651
e 108 725
e 109 390
e 109 689
e 110 781
e 110 131
e 110 313
e 110 377
e 111 547
e 111 897
e 111 549
e 111 922
e 112 958
e 112 299
e 112 618
e 112 197
e 112 992
e 117 566
e 117 288
e 118 374
e 118 798
e 118 196
e 119 741
e 119 352
e 119 780
e 120 681
e 120 131
e 120 954
e 120 846
e 120 307
e 121 720
e 121 832
e 121 973
e 121 799
e 121 567
e 121 150
e 121 710
e 121 616
e 122 861
e 122 751
e 122 274
e 122 263
e 123 452
e 123 217
e 123 243
e 123 746
e 123 564
e 123 892
e 124 411
e 124 317
e 125 855
e 125 590
e 125 906
e 125 909
e 125 657
e 126 154
e 126 448
e 126 197
e 127 525
e 127 783
e 127 913
e 127 646
e 127 521
e 127 133
e 127 677
e 127 900
e 130 889
e 130 452
e 130 166
e 130 716
e 131 988
e 131 155
e 131 520
e 131 913
e 131 576
e 131 510
e 133 860
e 133 794
e 134 436
e 134 275
e 134 438
e 138 784
e 138 651
e 138 611
e 139 491
e 139 410
e 139 463
e 139 761
e 140 580
e 140 939
e 140 615
e 140 887
e 140 632
e 142 230
e 142 403
e 142 508
e 144 887
e 144 369
e 144 260
e 144 486
e 144 484
e 145 526
e 145 906
e 145 690
e 145 494
e 145 454
e 145 514
e 145 184
e 145 960
e 145 980
e 146 947
e 146 866
e 146 821
e 146 754
e 146 915
e 147 868
e 147 565
e 147 964
e 147 684
e 147 268
e 147 184
e 147 167
e 148 618
e 148 963
e 148 260
e 148 254
e 150 634
e 150 721
e 150 448
e 150 860
e 152 942
e 152 512
e 152 883
e 152 510
e 152 217
e 153 782
e 153 323
e 153 962
e 153 741
e 153 852
e 154 162
e 154 226
e 154 450
e 154 718
e 154 411
e 155 163
e 155 893
e 155 690
e 156 204
e 156 694
e 156 948
e 156 467
e 160 952
e 160 465
e 160 171
e 160 373
e 162 753
e 162 653
e 162 774
e 162 338
e 163 641
e 163 459
e 163 791
e 165 253
e 165 857
e 165 306
e 165 941
e 166 683
e 166 815
e 166 302
e 167 209
e 167 245
e 167 993
e 167 959
e 168 318
e 168 594
e 168 535
e 168 536
e 168 626
e 168 938
e 170 367
e 170 892
e 170 965
e 170 514
e 171 230
e 171 285
e 171 748
e 172 698
e 172 383
e 172 968
e 172 512
e 172 594
e 172 621
e 174 601
e 174 661
e 174 675
e 174 538
e 175 257
e 175 552
e 175 445
e 175 817
e 175 902
e 175 436
e 176 263
e 176 696
e 176 230
e 176 997
e 177 934
e 177 364
e 177 375
e 177 866
e 178 272
e 178 567
e 178 807
e 179 955
e 179 338
e 179 954
e 180 240
e 180 482
e 180 900
e 180 892
e 180 960
e 180 522
e 180 691
e 181 685
e 181 328
e 181 581
e 181 734
e 183 634
e 183 212
e 183 555
e 184 203
e 184 517
e 184 649
e 184 738
e 185 562
e 185 866
e 185 961
e 185 820
e 186 250
e 190 309
e 190 998
e 190 417
e 190 629
e 190 643
e 191 891
e 191 405
e 191 955
e 191 612
e 191 642
e 192 256
e 192 558
e 192 782
e 192 289
e 192 815
e 193 495
e 193 261
e 193 585
e 193 836
e 196 601
e 196 586
e 196 469
e 196 926
e 196 991
e 197 642
e 197 982
e 197 761
e 197 823
e 198 567
e 198 991
e 198 465
e 199 607
e 199 371
e 200 590
e 200 488
e 200 214
e 200 833
e 200 955
e 200 763
e 200 224
e 201 871
e 201 453
e 201 591
e 201 948
e 202 581
e 202 884
e 202 551
e 202 435
e 203 222
e 203 649
e 203 955
e 203 923
e 203 489
e 203 314
e 203 517
e 204 245
e 204 678
e 204 608
e 204 705
e 205 791
e 205 581
e 206 312
e 206 832
e 206 258
e 206 677
e 206 540
e 206 569
e 207 918
e 207 839
e 207 459
e 207 262
e 208 969
e 208 763
e 208 878
e 209 262
e 209 834
e 209 535
e 209 688
e 209 364
e 210 260
e 210 963
e 210 562
e 212 814
e 212 582
e 212 422
e 213 948
e 213 329
e 213 601
e 213 390
e 213 834
e 214 526
e 214 626
e 214 983
e 215 807
e 215 223
e 215 457
e 216 842
e 216 604
e 216 908
e 217 675
e 217 900
e 217 886
e 218 395
e 218 356
e 218 683
e 222 349
e 222 461
e 223 332
e 223 663
e 223 568
e 223 850
e 224 719
e 224 847
e 224 324
e 224 690
e 225 330
e 225 280
e 225 375
e 226 609
e 226 606
e 226 571
e 226 643
e 226 800
e 226 912
e 227 514
e 227 533
e 227 523
e 228 517
e 228 761
e 228 732
e 228 277
e 228 592
e 229 727
e 229 589
e 229 587
e 229 753
e 229 710
e 230 486
e 230 658
e 230 273
e 231 363
e 231 637
e 231 692
e 231 962
e 233 237
e 233 781
e 233 326
e 235 703
e 235 630
e 235 724
e 235 661
e 235 509
e 236 663
e 236 561
e 237 871
e 237 539
e 237 711
e 238 473
e 238 764
e 238 261
e 238 279
e 238 995
e 238 975
e 239 970
e 239 293
e 239 332
e 240 501
e 240 611
e 241 887
e 241 721
e 241 619
e 241 385
e 243 613
e 243 926
e 243 342
e 243 925
e 243 775
e 244 711
e 244 782
e 244 555
e 244 569
e 244 444
e 244 305
e 245 503
e 246 403
e 246 489
e 246 658
e 246 855
e 247 982
e 247 923
e 247 379
e 247 893
e 247 695
e 247 995
e 247 594
e 247 854
e 247 973
e 249 298
e 249 945
e 249 631
e 249 304
e 249 699
e 249 751
e 249 469
e 249 294
e 249 491
e 250 268
e 250 654
e 253 306
e 253 284
e 253 356
e 253 593
e 254 663
e 255 439
e 255 418
e 255 966
e 255 896
e 256 555
e 256 291
e 256 826
e 256 451
e 257 617
e 257 952
e 258 352
e 258 778
e 258 893
e 258 304
e 258 316
e 259 967
e 259 582
e 259 959
e 259 754
e 260 481
e 260 595
e 261 649
e 261 849
e 261 284
e 261 952
e 262 786
e 262 656
e 262 520
e 263 807
e 263 967
e 263 356
e 264 322
e 264 588
e 264 693
e 268 382
e 268 618
e 268 637
e 268 658
e 269 995
e 269 461
e 269 488
e 269 781
e 269 816
e 269 695
e 269 818
e 269 894
e 271 555
e 271 459
e 271 481
e 271 388
e 272 338
e 272 573
e 273 594
e 273 692
e 274 560
e 274 882
e 275 549
e 276 993
e 276 796
e 276 321
e 276 966
e 276 939
e 276 544
e 277 951
e 277 524
e 279 718
e 279 645
e 279 591
e 279 317
e 279 928
e 279 349
e 280 593
e 280 341
e 280 845
e 280 532
e 281 700
e 281 794
e 281 716
e 281 933
e 282 552
e 282 962
e 282 716
e 284 973
e 284 651
e 285 970
e 285 921
e 285 567
e 286 564
e 286 827
e 286 353
e 286 341
e 287 615
e 287 971
e 287 936
e 287 844
e 288 338
e 288 525
e 288 383
e 288 815
e 288 376
e 288 747
e 289 384
e 289 710
e 289 574
e 291 337
e 291 625
e 291 707
e 291 861
e 292 940
e 292 877
e 292 527
e 292 385
e 293 839
e 293 951
e 293 488
e 294 966
e 294 317
e 294 331
e 298 696
e 298 501
e 299 739
e 299 651
e 301 367
e 301 683
e 301 961
e 301 933
e 302 483
e 302 692
e 303 497
e 303 774
e 303 586
e 304 726
e 304 780
e 304 900
e 305 790
e 305 702
e 306 310
e 307 418
e 307 830
e 307 626
e 307 601
e 309 857
e 309 489
e 309 514
e 309 760
e 310 763
e 310 891
e 310 868
e 310 493
e 312 892
e 312 385
e 313 667
e 313 945
e 314 830
e 314 548
e 314 633
e 314 467
e 314 909
e 316 604
e 316 975
e 316 364
e 316 951
e 316 321
e 317 980
e 317 592
e 317 982
e 318 424
e 318 708
e 318 667
e 321 624
e 322 790
e 322 922
e 322 424
e 322 964
e 323 447
e 323 780
e 324 796
e 324 692
e 326 341
e 326 561
e 326 993
e 326 432
e 327 929
e 327 672
e 327 637
e 328 807
e 329 792
e 329 628
e 329 408
e 329 437
e 330 637
e 330 647
e 330 618
e 331 999
e 331 597
e 331 543
e 331 379
e 331 700
e 331 340
e 332 681
e 332 343
e 332 333
e 332 372
e 332 719
e 333 558
e 333 619
e 333 755
e 334 543
e 334 933
e 334 539
e 334 476
e 334 878
e 335 676
e 335 787
e 335 594
e 337 491
e 337 675
e 337 847
e 337 723
e 337 837
e 337 494
e 338 462
e 340 702
e 340 841
e 340 721
e 341 431
e 341 990
e 342 727
e 342 542
e 342 842
e 343 503
e 343 683
e 343 608
e 344 894
e 344 654
e 344 960
e 344 858
e 345 554
e 345 433
e 345 841
e 346 724
e 347 614
e 347 818
e 347 582
e 347 679
e 347 367
e 349 386
e 350 769
e 350 529
e 350 944
e 350 454
e 350 687
e 350 693
e 350 778
e 352 985
e 352 821
e 352 363
e 352 781
e 353 726
e 353 439
e 353 951
e 353 936
e 356 457
e 356 869
e 356 944
e 356 636
e 356 463
e 356 545
e 357 772
e 357 814
e 359 385
e 359 615
e 359 976
e 361 947
e 361 469
e 361 751
e 363 973
e 363 514
e 363 803
e 363 931
e 364 772
e 364 802
e 364 482
e 364 806
e 365 594
e 365 631
e 365 580
e 365 927
e 365 827
e 365 548
e 365 464
e 365 764
e 366 772
e 366 964
e 366 893
e 366 745
e 366 576
e 366 805
e 367 896
e 367 923
e 367 753
e 367 817
e 369 711
e 369 805
e 369 454
e 371 597
e 371 871
e 371 776
e 372 451
e 373 932
e 373 669
e 373 979
e 373 450
e 374 545
e 374 949
e 375 401
e 375 560
e 375 483
e 376 803
e 376 561
e 376 897
e 376 818
e 376 511
e 377 745
e 377 484
e 377 863
e 377 970
e 379 464
e 380 388
e 380 653
e 380 436
e 382 574
e 382 528
e 383 475
e 383 748
e 383 719
e 383 792
e 384 473
e 384 715
e 385 883
e 385 657
e 385 490
e 386 693
e 386 900
e 386 832
e 387 926
e 387 657
e 387 796
e 387 756
e 389 731
e 389 533
e 390 913
e 390 637
e 390 911
e 390 962
e 393 407
e 393 459
e 395 798
e 395 447
e 395 821
e 395 647
e 398 533
e 398 520
e 398 701
e 398 754
e 399 685
e 399 913
e 399 456
e 399 682
e 400 947
e 400 588
e 401 803
e 401 720
e 401 407
e 401 762
e 403 615
e 403 769
e 404 664
e 404 929
e 404 646
e 404 556
e 404 816
e 405 431
e 405 410
e 405 521
e 405 658
e 407 922
e 408 766
e 408 489
e 409 594
e 409 763
e 409 512
e 410 582
e 411 955
e 411 965
e 411 567
e 414 743
e 414 475
e 414 834
e 414 482
e 417 765
e 417 594
e 417 796
e 418 462
e 418 776
e 422 549
e 422 592
e 423 794
e 423 701
e 423 703
e 424 576
e 426 548
e 426 748
e 426 512
e 426 541
e 427 961
e 427 805
e 427 900
e 427 991
e 429 622
e 429 639
e 429 614
e 429 867
e 431 960
e 431 810
e 431 739
e 432 955
e 432 539
e 433 450
e 433 511
e 435 843
e 435 572
e 435 736
e 436 915
e 436 677
e 436 908
e 437 690
e 437 894
e 437 926
e 437 810
e 438 647
e 438 576
e 438 610
e 439 621
e 443 986
e 443 839
e 443 746
e 443 858
e 443 650
e 443 936
e 444 767
e 444 533
e 444 584
e 445 967
e 445 976
e 445 683
e 446 488
e 446 579
e 446 900
e 446 837
e 447 746
e 447 550
e 447 896
e 447 538
e 447 512
e 448 787
e 448 488
e 448 777
e 450 631
e 450 497
e 450 779
e 451 679
e 452 988
e 452 768
e 452 520
e 452 569
e 452 681
e 453 601
e 453 773
e 453 659
e 453 465
e 456 633
e 457 485
e 457 766
e 458 535
e 458 891
e 458 788
e 461 847
e 461 467
e 462 893
e 463 985
e 464 563
e 465 576
e 465 566
e 467 843
e 467 490
e 467 788
e 468 791
e 468 932
e 468 742
e 469 781
e 469 514
e 469 720
e 471 782
e 471 615
e 473 579
e 473 938
e 473 548
e 474 518
e 474 608
e 474 838
e 475 612
e 476 597
e 479 807
e 479 896
e 479 659
e 481 992
e 481 509
e 481 631
e 482 689
e 482 818
e 482 675
e 483 884
e 483 844
e 483 742
e 484 638
e 484 818
e 485 720
e 485 572
e 485 698
e 485 522
e 485 852
e 486 632
e 486 934
e 488 536
e 488 867
e 489 764
e 490 734
e 490 610
e 490 964
e 490 539
e 491 861
e 491 738
e 492 900
e 492 624
e 492 893
e 492 637
e 493 967
e 493 849
e 494 832
e 495 963
e 495 820
e 497 526
e 497 664
e 497 944
e 497 965
e 497 810
e 499 964
e 499 750
e 499 938
e 499 826
e 500 702
e 500 734
e 501 990
e 501 817
e 501 936
e 501 984
e 502 853
e 502 696
e 502 641
e 502 944
e 503 761
e 507 900
e 507 771
e 507 650
e 508 600
e 508 987
e 508 753
e 509 638
e 510 584
e 511 784
e 512 685
e 512 976
e 512 581
e 514 548
e 514 992
e 517 894
e 517 653
e 517 689
e 517 520
e 518 916
e 518 780
e 520 566
e 520 823
e 521 532
e 522 538
e 522 968
e 522 993
e 523 635
e 523 884
e 524 606
e 524 609
e 524 863
e 524 768
e 525 582
e 526 948
e 526 655
e 527 947
e 527 676
e 527 658
e 528 902
e 528 595
e 529 933
e 532 715
e 532 681
e 532 898
e 532 973
e 533 630
e 535 985
e 538 612
e 539 927
e 539 545
e 539 846
e 539 833
e 539 694
e 539 645
e 540 602
e 540 957
e 540 565
e 541 771
e 541 812
e 542 650
e 542 781
e 542 738
e 542 716
e 542 833
e 544 871
e 544 808
e 545 867
e 545 909
e 545 965
e 545 699
e 545 994
e 546 979
e 546 986
e 546 854
e 547 758
e 547 588
e 547 636
e 549 607
e 549 791
e 549 602
e 550 845
e 550 976
e 551 613
e 553 783
e 553 939
e 553 800
e 554 700
e 554 773
e 554 802
e 554 721
e 555 958
e 555 984
e 555 882
e 555 676
e 556 889
e 556 810
e 558 765
e 558 896
e 558 595
e 558 892
e 560 990
e 560 609
e 561 774
e 562 752
e 562 608
e 562 952
e 563 965
e 563 760
e 564 651
e 564 963
e 564 695
e 565 983
e 565 738
e 565 998
e 566 742
e 566 698
e 566 889
e 566 908
e 566 674
e 567 670
e 567 958
e 568 864
e 568 801
e 569 636
e 571 708
e 571 846
e 571 859
e 572 952
e 572 595
e 573 760
e 574 601
e 578 688
e 578 728
e 578 586
e 580 864
e 580 969
e 582 653
e 582 958
e 584 698
e 585 702
e 585 982
e 585 989
e 586 999
e 586 836
e 587 758
e 587 687
e 587 949
e 587 911
e 588 861
e 588 589
e 588 767
e 589 952
e 590 839
e 591 799
e 592 792
e 592 812
e 593 985
e 593 775
e 594 691
e 594 658
e 594 659
e 595 842
e 600 649
e 602 754
e 604 986
e 606 608
e 607 900
e 607 859
e 607 993
e 608 665
e 609 767
e 610 911
e 610 902
e 611 628
e 611 859
e 611 654
e 611 904
e 611 748
e 612 703
e 613 935
e 615 708
e 615 669
e 616 878
e 616 794
e 616 784
e 617 884
e 617 994
e 618 957
e 619 788
e 619 653
e 621 783
e 622 991
e 624 832
e 624 667
e 624 947
e 624 655
e 624 748
e 624 815
e 624 902
e 624 916
e 625 730
e 625 633
e 625 637
e 625 801
e 626 632
e 626 663
e 626 921
e 628 841
e 628 808
e 629 964
e 629 987
e 629 726
e 629 795
e 630 725
e 630 742
e 630 767
e 631 928
e 631 740
e 632 884
e 632 941
e 632 746
e 632 857
e 634 817
e 635 658
e 635 838
e 636 721
e 636 818
e 637 693
e 637 900
e 638 927
e 638 794
e 639 802
e 639 892
e 641 908
e 641 783
e 642 679
e 643 670
e 643 906
e 645 911
e 648 692
e 648 864
e 649 752
e 650 850
e 651 857
e 653 945
e 653 964
e 654 727
e 655 958
e 655 788
e 656 684
e 656 979
e 656 715
e 656 780
e 657 929
e 657 782
e 657 849
e 658 871
e 658 884
e 661 985
e 663 908
e 663 867
e 663 832
e 663 707
e 663 903
e 664 958
e 665 793
e 665 799
e 667 681
e 669 949
e 670 951
e 670 827
e 672 941
e 672 709
e 674 740
e 674 908
e 676 698
e 676 747
e 677 814
e 677 945
e 678 830
e 678 918
e 678 779
e 678 897
e 678 878
e 681 857
e 682 756
e 682 960
e 682 935
e 683 915
e 683 709
e 684 906
e 685 834
e 687 990
e 688 761
e 688 773
e 689 894
e 689 861
e 689 942
e 690 791
e 691 862
e 692 710
e 692 838
e 692 748
e 694 723
e 694 821
e 698 820
e 698 788
e 698 783
e 699 999
e 699 737
e 700 821
e 702 901
e 705 764
e 705 736
e 707 849
e 708 815
e 709 857
e 709 932
e 710 738
e 710 927
e 711 837
e 711 904
e 716 897
e 718 762
e 719 960
e 719 745
e 719 785
e 721 997
e 721 898
e 723 777
e 724 773
e 725 877
e 726 886
e 727 893
e 728 803
e 728 786
e 728 959
e 730 882
e 730 844
e 730 736
e 730 775
e 730 892
e 731 942
e 731 884
e 732 980
e 732 806
e 732 966
e 734 916
e 736 933
e 737 947
e 737 891
e 739 771
e 739 852
e 740 864
e 743 983
e 748 969
e 748 779
e 750 855
e 750 800
e 751 816
e 751 908
e 752 844
e 753 852
e 754 868
e 755 950
e 755 991
e 756 919
e 758 846
e 760 866
e 761 837
e 762 953
e 762 767
e 765 904
e 765 915
e 766 801
e 766 919
e 768 834
e 769 962
e 769 850
e 771 897
e 773 892
e 778 883
e 778 901
e 780 884
e 781 807
e 782 957
e 782 952
e 783 862
e 784 799
e 786 926
e 787 903
e 789 990
e 789 964
e 790 976
e 790 915
e 792 960
e 792 913
e 792 846
e 793 836
e 793 934
e 794 983
e 794 959
e 795 947
e 795 860
e 800 863
e 806 854
e 806 968
e 808 821
e 810 923
e 812 815
e 814 897
e 815 843
e 815 855
e 816 845
e 818 845
e 818 988
e 820 836
e 821 998
e 821 984
e 821 953
e 823 894
e 823 980
e 826 903
e 826 919
e 827 994
e 830 892
e 834 853
e 836 896
e 842 925
e 843 971
e 843 858
e 844 847
e 846 950
e 849 950
e 850 932
e 855 912
e 857 867
e 857 940
e 859 893
e 860 935
e 863 878
e 864 952
e 868 903
e 871 909
e 871 980
e 877 882
e 878 953
e 886 928
e 889 961
e 893 918
e 896 902
e 898 921
e 900 915
e 900 953
e 900 997
e 904 969
e 909 935
e 919 987
e 925 975
e 931 944
e 935 957
e 936 963
e 936 952
e 938 951
e 944 999
e 947 989
e 948 973
e 957 973
e 964 984
e 971 985
