txt_Ins/graph-1000-961.txt
n 1000
e 0 905
e 0 784
e 0 124
e 0 438
e 0 240
e 0 37
e 2 330
e 2 886
e 2 776
e 2 948
e 3 51
e 3 290
e 3 572
e 3 866
e 5 958
e 5 742
e 5 641
e 5 860
e 5 14
e 5 488
e 5 542
e 6 356
e 6 508
e 6 717
e 7 620
e 7 861
e 7 749
e 7 912
e 7 792
e 7 355
e 8 60
e 8 539
e 8 940
e 8 387
e 8 613
e 11 63
e 11 568
e 11 738
e 12 293
e 12 902
e 12 868
e 12 723
e 13 259
e 13 762
e 13 852
e 13 807
e 14 263
e 14 771
e 14 691
e 14 611
e 14 462
e 14 905
e 15 226
e 15 456
e 15 403
e 17 417
e 17 62
e 17 32
e 18 185
e 18 723
e 18 547
e 19 543
e 19 749
e 19 714
e 19 745
e 20 600
e 20 719
e 20 96
e 20 931
e 20 71
e 22 585
e 22 613
e 22 814
e 23 65
e 23 690
e 23 26
e 23 785
e 24 865
e 24 746
e 24 464
e 24 750
e 24 735
e 24 523
e 25 215
e 25 453
e 25 930
e 26 407
e 26 822
e 26 274
e 28 652
e 28 607
e 28 253
e 29 658
e 29 881
e 29 781
e 29 784
e 29 213
e 31 815
e 31 124
e 31 235
e 31 868
e 32 848
e 32 152
e 32 546
e 33 953
e 33 891
e 33 775
e 33 488
e 34 75
e 34 278
e 34 155
e 34 920
e 35 198
e 35 202
e 35 383
e 37 724
e 37 100
e 37 858
e 37 805
e 37 455
e 37 165
e 40 577
e 40 750
e 40 798
e 40 167
e 40 502
e 43 309
e 43 331
e 43 382
e 43 346
e 43 707
e 45 754
e 45 485
e 45 611
e 45 132
e 45 171
e 45 300
e 45 840
e 45 660
e 45 813
e 45 151
e 45 224
e 46 116
e 46 408
e 46 704
e 46 388
e 46 621
e 49 95
e 49 511
e 49 900
e 49 989
e 50 399
e 50 581
e 50 571
e 50 798
e 50 122
e 50 967
e 50 146
e 50 572
e 51 551
e 51 246
e 55 764
e 55 740
e 55 792
e 56 647
e 56 663
e 56 645
e 57 784
e 57 410
e 57 345
e 57 586
e 57 600
e 57 462
e 59 578
e 59 689
e 59 600
e 59 263
e 60 397
e 60 673
e 60 806
e 62 761
e 62 932
e 62 345
e 63 750
e 63 119
e 63 676
e 65 788
e 65 943
e 65 551
e 66 470
e 66 910
e 66 402
e 66 204
e 66 327
e 67 542
e 67 883
e 67 605
e 67 579
e 67 674
e 67 178
e 67 494
e 68 599
e 68 132
e 68 791
e 68 192
e 69 912
e 69 137
e 69 76
e 69 700
e 69 590
e 71 972
e 71 930
e 71 421
e 71 268
e 72 430
e 72 487
e 72 890
e 72 107
e 72 594
e 73 535
e 73 417
e 73 475
e 73 333
e 73 550
e 73 704
e 74 437
e 74 322
e 74 462
e 75 621
e 75 707
e 75 634
e 75 191
e 76 323
e 76 567
e 76 108
e 77 417
e 77 107
e 77 680
e 78 613
e 78 842
e 78 509
e 79 901
e 79 137
e 79 650
e 81 811
e 81 600
e 81 934
e 81 215
e 81 102
e 82 223
e 82 930
e 82 963
e 83 911
e 83 500
e 83 901
e 83 704
e 83 655
e 84 914
e 84 300
e 84 846
e 84 623
e 84 516
e 87 348
e 87 985
e 87 464
e 88 199
e 88 431
e 88 852
e 88 822
e 88 255
e 88 436
e 88 216
e 91 227
e 91 813
e 91 169
e 91 746
e 94 457
e 94 274
e 94 966
e 95 525
e 95 381
e 96 969
e 96 851
e 96 633
e 96 579
e 96 797
e 98 615
e 98 407
e 98 392
e 98 559
e 99 868
e 99 528
e 99 123
e 99 105
e 99 836
e 99 561
e 99 209
e 100 987
e 100 907
e 100 111
e 100 849
e 101 110
e 101 185
e 101 933
e 101 565
e 101 806
e 102 614
e 102 930
e 102 663
e 102 378
e 104 988
e 104 167
e 104 339
e 104 939
e 104 485
e 104 646
e 105 221
e 105 647
e 106 601
e 106 886
e 106 687
e 106 815
e 106 371
e 106 499
e 107 650
e 107 724
e 108 389
e 108 688
e 109 780
e 109 130
e 109 312
e 109 376
e 110 546
e 110 896
e 110 548
e 110 921
e 111 957
e 111 298
e 111 617
e 111 196
e 111 991
e 116 565
e 116 287
e 117 373
e 117 797
e 117 195
e 118 740
e 118 351
e 118 779
e 119 680
e 119 130
e 119 953
e 119 845
e 119 306
e 120 719
e 120 831
e 120 972
e 120 798
e 120 566
e 120 149
e 120 709
e 120 615
e 121 860
e 121 750
e 121 273
e 121 262
e 122 451
e 122 216
e 122 242
e 122 745
e 122 563
e 122 891
e 123 410
e 123 316
e 124 854
e 124 589
e 124 905
e 124 908
e 124 656
e 125 153
e 125 447
e 125 196
e 126 524
e 126 782
e 126 912
e 126 645
e 126 520
e 126 132
e 126 676
e 126 899
e 129 888
e 129 451
e 129 165
e 129 715
e 130 987
e 130 154
e 130 519
e 130 912
e 130 575
e 130 509
e 132 859
e 132 793
e 133 435
e 133 274
e 133 437
e 137 783
e 137 650
e 137 610
e 138 490
e 138 409
e 138 462
e 138 760
e 139 579
e 139 938
e 139 614
e 139 886
e 139 631
e 141 229
e 141 402
e 141 507
e 143 886
e 143 368
e 143 259
e 143 485
e 143 483
e 144 525
e 144 905
e 144 689
e 144 493
e 144 453
e 144 513
e 144 183
e 144 959
e 144 979
e 145 946
e 145 865
e 145 820
e 145 753
e 145 914
e 146 867
e 146 564
e 146 963
e 146 683
e 146 267
e 146 183
e 146 166
e 147 617
e 147 962
e 147 259
e 147 253
e 149 633
e 149 720
e 149 447
e 149 859
e 151 941
e 151 511
e 151 882
e 151 509
e 151 216
e 152 781
e 152 322
e 152 961
e 152 740
e 152 851
e 153 161
e 153 225
e 153 449
e 153 717
e 153 410
e 154 162
e 154 892
e 154 689
e 155 203
e 155 693
e 155 947
e 155 466
e 159 951
e 159 464
e 159 170
e 159 372
e 161 752
e 161 652
e 161 773
e 161 337
e 162 640
e 162 458
e 162 790
e 164 252
e 164 856
e 164 305
e 164 940
e 165 682
e 165 814
e 165 301
e 166 208
e 166 244
e 166 992
e 166 958
e 167 317
e 167 593
e 167 534
e 167 535
e 167 625
e 167 937
e 169 366
e 169 891
e 169 964
e 169 513
e 170 229
e 170 284
e 170 747
e 171 697
e 171 382
e 171 967
e 171 511
e 171 593
e 171 620
e 173 600
e 173 660
e 173 674
e 173 537
e 174 256
e 174 551
e 174 444
e 174 816
e 174 901
e 174 435
e 175 262
e 175 695
e 175 229
e 175 996
e 176 933
e 176 363
e 176 374
e 176 865
e 177 271
e 177 566
e 177 806
e 178 954
e 178 337
e 178 953
e 179 239
e 179 481
e 179 899
e 179 891
e 179 959
e 179 521
e 179 690
e 180 684
e 180 327
e 180 580
e 180 733
e 182 633
e 182 211
e 182 554
e 183 202
e 183 516
e 183 648
e 183 737
e 184 561
e 184 865
e 184 960
e 184 819
e 185 249
e 189 308
e 189 997
e 189 416
e 189 628
e 189 642
e 190 890
e 190 404
e 190 954
e 190 611
e 190 641
e 191 255
e 191 557
e 191 781
e 191 288
e 191 814
e 192 494
e 192 260
e 192 584
e 192 835
e 195 600
e 195 585
e 195 468
e 195 925
e 195 990
e 196 641
e 196 981
e 196 760
e 196 822
e 197 566
e 197 990
e 197 464
e 198 606
e 198 370
e 199 589
e 199 487
e 199 213
e 199 832
e 199 954
e 199 762
e 199 223
e 200 870
e 200 452
e 200 590
e 200 947
e 201 580
e 201 883
e 201 550
e 201 434
e 202 221
e 202 648
e 202 954
e 202 922
e 202 488
e 202 313
e 202 516
e 203 244
e 203 677
e 203 607
e 203 704
e 204 790
e 204 580
e 205 311
e 205 831
e 205 257
e 205 676
e 205 539
e 205 568
e 206 917
e 206 838
e 206 458
e 206 261
e 207 968
e 207 762
e 207 877
e 208 261
e 208 833
e 208 534
e 208 687
e 208 363
e 209 259
e 209 962
e 209 561
e 211 813
e 211 581
e 211 421
e 212 947
e 212 328
e 212 600
e 212 389
e 212 833
e 213 525
e 213 625
e 213 982
e 214 806
e 214 222
e 214 456
e 215 841
e 215 603
e 215 907
e 216 674
e 216 899
e 216 885
e 217 394
e 217 355
e 217 682
e 221 348
e 221 460
e 222 331
e 222 662
e 222 567
e 222 849
e 223 718
e 223 846
e 223 323
e 223 689
e 224 329
e 224 279
e 224 374
e 225 608
e 225 605
e 225 570
e 225 642
e 225 799
e 225 911
e 226 513
e 226 532
e 226 522
e 227 516
e 227 760
e 227 731
e 227 276
e 227 591
e 228 726
e 228 588
e 228 586
e 228 752
e 228 709
e 229 485
e 229 657
e 229 272
e 230 362
e 230 636
e 230 691
e 230 961
e 232 236
e 232 780
e 232 325
e 234 702
e 234 629
e 234 723
e 234 660
e 234 508
e 235 662
e 235 560
e 236 870
e 236 538
e 236 710
e 237 472
e 237 763
e 237 260
e 237 278
e 237 994
e 237 974
e 238 969
e 238 292
e 238 331
e 239 500
e 239 610
e 240 886
e 240 720
e 240 618
e 240 384
e 242 612
e 242 925
e 242 341
e 242 924
e 242 774
e 243 710
e 243 781
e 243 554
e 243 568
e 243 443
e 243 304
e 244 502
e 245 402
e 245 488
e 245 657
e 245 854
e 246 981
e 246 922
e 246 378
e 246 892
e 246 694
e 246 994
e 246 593
e 246 853
e 246 972
e 248 297
e 248 944
e 248 630
e 248 303
e 248 698
e 248 750
e 248 468
e 248 293
e 248 490
e 249 267
e 249 653
e 252 305
e 252 283
e 252 355
e 252 592
e 253 662
e 254 438
e 254 417
e 254 965
e 254 895
e 255 554
e 255 290
e 255 825
e 255 450
e 256 616
e 256 951
e 257 351
e 257 777
e 257 892
e 257 303
e 257 315
e 258 966
e 258 581
e 258 958
e 258 753
e 259 480
e 259 594
e 260 648
e 260 848
e 260 283
e 260 951
e 261 785
e 261 655
e 261 519
e 262 806
e 262 966
e 262 355
e 263 321
e 263 587
e 263 692
e 267 381
e 267 617
e 267 636
e 267 657
e 268 994
e 268 460
e 268 487
e 268 780
e 268 815
e 268 694
e 268 817
e 268 893
e 270 554
e 270 458
e 270 480
e 270 387
e 271 337
e 271 572
e 272 593
e 272 691
e 273 559
e 273 881
e 274 548
e 275 992
e 275 795
e 275 320
e 275 965
e 275 938
e 275 543
e 276 950
e 276 523
e 278 717
e 278 644
e 278 590
e 278 316
e 278 927
e 278 348
e 279 592
e 279 340
e 279 844
e 279 531
e 280 699
e 280 793
e 280 715
e 280 932
e 281 551
e 281 961
e 281 715
e 283 972
e 283 650
e 284 969
e 284 920
e 284 566
e 285 563
e 285 826
e 285 352
e 285 340
e 286 614
e 286 970
e 286 935
e 286 843
e 287 337
e 287 524
e 287 382
e 287 814
e 287 375
e 287 746
e 288 383
e 288 709
e 288 573
e 290 336
e 290 624
e 290 706
e 290 860
e 291 939
e 291 876
e 291 526
e 291 384
e 292 838
e 292 950
e 292 487
e 293 965
e 293 316
e 293 330
e 297 695
e 297 500
e 298 738
e 298 650
e 300 366
e 300 682
e 300 960
e 300 932
e 301 482
e 301 691
e 302 496
e 302 773
e 302 585
e 303 725
e 303 779
e 303 899
e 304 789
e 304 701
e 305 309
e 306 417
e 306 829
e 306 625
e 306 600
e 308 856
e 308 488
e 308 513
e 308 759
e 309 762
e 309 890
e 309 867
e 309 492
e 311 891
e 311 384
e 312 666
e 312 944
e 313 829
e 313 547
e 313 632
e 313 466
e 313 908
e 315 603
e 315 974
e 315 363
e 315 950
e 315 320
e 316 979
e 316 591
e 316 981
e 317 423
e 317 707
e 317 666
e 320 623
e 321 789
e 321 921
e 321 423
e 321 963
e 322 446
e 322 779
e 323 795
e 323 691
e 325 340
e 325 560
e 325 992
e 325 431
e 326 928
e 326 671
e 326 636
e 327 806
e 328 791
e 328 627
e 328 407
e 328 436
e 329 636
e 329 646
e 329 617
e 330 998
e 330 596
e 330 542
e 330 378
e 330 699
e 330 339
e 331 680
e 331 342
e 331 332
e 331 371
e 331 718
e 332 557
e 332 618
e 332 754
e 333 542
e 333 932
e 333 538
e 333 475
e 333 877
e 334 675
e 334 786
e 334 593
e 336 490
e 336 674
e 336 846
e 336 722
e 336 836
e 336 493
e 337 461
e 339 701
e 339 840
e 339 720
e 340 430
e 340 989
e 341 726
e 341 541
e 341 841
e 342 502
e 342 682
e 342 607
e 343 893
e 343 653
e 343 959
e 343 857
e 344 553
e 344 432
e 344 840
e 345 723
e 346 613
e 346 817
e 346 581
e 346 678
e 346 366
e 348 385
e 349 768
e 349 528
e 349 943
e 349 453
e 349 686
e 349 692
e 349 777
e 351 984
e 351 820
e 351 362
e 351 780
e 352 725
e 352 438
e 352 950
e 352 935
e 355 456
e 355 868
e 355 943
e 355 635
e 355 462
e 355 544
e 356 771
e 356 813
e 358 384
e 358 614
e 358 975
e 360 946
e 360 468
e 360 750
e 362 972
e 362 513
e 362 802
e 362 930
e 363 771
e 363 801
e 363 481
e 363 805
e 364 593
e 364 630
e 364 579
e 364 926
e 364 826
e 364 547
e 364 463
e 364 763
e 365 771
e 365 963
e 365 892
e 365 744
e 365 575
e 365 804
e 366 895
e 366 922
e 366 752
e 366 816
e 368 710
e 368 804
e 368 453
e 370 596
e 370 870
e 370 775
e 371 450
e 372 931
e 372 668
e 372 978
e 372 449
e 373 544
e 373 948
e 374 400
e 374 559
e 374 482
e 375 802
e 375 560
e 375 896
e 375 817
e 375 510
e 376 744
e 376 483
e 376 862
e 376 969
e 378 463
e 379 387
e 379 652
e 379 435
e 381 573
e 381 527
e 382 474
e 382 747
e 382 718
e 382 791
e 383 472
e 383 714
e 384 882
e 384 656
e 384 489
e 385 692
e 385 899
e 385 831
e 386 925
e 386 656
e 386 795
e 386 755
e 388 730
e 388 532
e 389 912
e 389 636
e 389 910
e 389 961
e 392 406
e 392 458
e 394 797
e 394 446
e 394 820
e 394 646
e 397 532
e 397 519
e 397 700
e 397 753
e 398 684
e 398 912
e 398 455
e 398 681
e 399 946
e 399 587
e 400 802
e 400 719
e 400 406
e 400 761
e 402 614
e 402 768
e 403 663
e 403 928
e 403 645
e 403 555
e 403 815
e 404 430
e 404 409
e 404 520
e 404 657
e 406 921
e 407 765
e 407 488
e 408 593
e 408 762
e 408 511
e 409 581
e 410 954
e 410 964
e 410 566
e 413 742
e 413 474
e 413 833
e 413 481
e 416 764
e 416 593
e 416 795
e 417 461
e 417 775
e 421 548
e 421 591
e 422 793
e 422 700
e 422 702
e 423 575
e 425 547
e 425 747
e 425 511
e 425 540
e 426 960
e 426 804
e 426 899
e 426 990
e 428 621
e 428 638
e 428 613
e 428 866
e 430 959
e 430 809
e 430 738
e 431 954
e 431 538
e 432 449
e 432 510
e 434 842
e 434 571
e 434 735
e 435 914
e 435 676
e 435 907
e 436 689
e 436 893
e 436 925
e 436 809
e 437 646
e 437 575
e 437 609
e 438 620
e 442 985
e 442 838
e 442 745
e 442 857
e 442 649
e 442 935
e 443 766
e 443 532
e 443 583
e 444 966
e 444 975
e 444 682
e 445 487
e 445 578
e 445 899
e 445 836
e 446 745
e 446 549
e 446 895
e 446 537
e 446 511
e 447 786
e 447 487
e 447 776
e 449 630
e 449 496
e 449 778
e 450 678
e 451 987
e 451 767
e 451 519
e 451 568
e 451 680
e 452 600
e 452 772
e 452 658
e 452 464
e 455 632
e 456 484
e 456 765
e 457 534
e 457 890
e 457 787
e 460 846
e 460 466
e 461 892
e 462 984
e 463 562
e 464 575
e 464 565
e 466 842
e 466 489
e 466 787
e 467 790
e 467 931
e 467 741
e 468 780
e 468 513
e 468 719
e 470 781
e 470 614
e 472 578
e 472 937
e 472 547
e 473 517
e 473 607
e 473 837
e 474 611
e 475 596
e 478 806
e 478 895
e 478 658
e 480 991
e 480 508
e 480 630
e 481 688
e 481 817
e 481 674
e 482 883
e 482 843
e 482 741
e 483 637
e 483 817
e 484 719
e 484 571
e 484 697
e 484 521
e 484 851
e 485 631
e 485 933
e 487 535
e 487 866
e 488 763
e 489 733
e 489 609
e 489 963
e 489 538
e 490 860
e 490 737
e 491 899
e 491 623
e 491 892
e 491 636
e 492 966
e 492 848
e 493 831
e 494 962
e 494 819
e 496 525
e 496 663
e 496 943
e 496 964
e 496 809
e 498 963
e 498 749
e 498 937
e 498 825
e 499 701
e 499 733
e 500 989
e 500 816
e 500 935
e 500 983
e 501 852
e 501 695
e 501 640
e 501 943
e 502 760
e 506 899
e 506 770
e 506 649
e 507 599
e 507 986
e 507 752
e 508 637
e 509 583
e 510 783
e 511 684
e 511 975
e 511 580
e 513 547
e 513 991
e 516 893
e 516 652
e 516 688
e 516 519
e 517 915
e 517 779
e 519 565
e 519 822
e 520 531
e 521 537
e 521 967
e 521 992
e 522 634
e 522 883
e 523 605
e 523 608
e 523 862
e 523 767
e 524 581
e 525 947
e 525 654
e 526 946
e 526 675
e 526 657
e 527 901
e 527 594
e 528 932
e 531 714
e 531 680
e 531 897
e 531 972
e 532 629
e 534 984
e 537 611
e 538 926
e 538 544
e 538 845
e 538 832
e 538 693
e 538 644
e 539 601
e 539 956
e 539 564
e 540 770
e 540 811
e 541 649
e 541 780
e 541 737
e 541 715
e 541 832
e 543 870
e 543 807
e 544 866
e 544 908
e 544 964
e 544 698
e 544 993
e 545 978
e 545 985
e 545 853
e 546 757
e 546 587
e 546 635
e 548 606
e 548 790
e 548 601
e 549 844
e 549 975
e 550 612
e 552 782
e 552 938
e 552 799
e 553 699
e 553 772
e 553 801
e 553 720
e 554 957
e 554 983
e 554 881
e 554 675
e 555 888
e 555 809
e 557 764
e 557 895
e 557 594
e 557 891
e 559 989
e 559 608
e 560 773
e 561 751
e 561 607
e 561 951
e 562 964
e 562 759
e 563 650
e 563 962
e 563 694
e 564 982
e 564 737
e 564 997
e 565 741
e 565 697
e 565 888
e 565 907
e 565 673
e 566 669
e 566 957
e 567 863
e 567 800
e 568 635
e 570 707
e 570 845
e 570 858
e 571 951
e 571 594
e 572 759
e 573 600
e 577 687
e 577 727
e 577 585
e 579 863
e 579 968
e 581 652
e 581 957
e 583 697
e 584 701
e 584 981
e 584 988
e 585 998
e 585 835
e 586 757
e 586 686
e 586 948
e 586 910
e 587 860
e 587 588
e 587 766
e 588 951
e 589 838
e 590 798
e 591 791
e 591 811
e 592 984
e 592 774
e 593 690
e 593 657
e 593 658
e 594 841
e 599 648
e 601 753
e 603 985
e 605 607
e 606 899
e 606 858
e 606 992
e 607 664
e 608 766
e 609 910
e 609 901
e 610 627
e 610 858
e 610 653
e 610 903
e 610 747
e 611 702
e 612 934
e 614 707
e 614 668
e 615 877
e 615 793
e 615 783
e 616 883
e 616 993
e 617 956
e 618 787
e 618 652
e 620 782
e 621 990
e 623 831
e 623 666
e 623 946
e 623 654
e 623 747
e 623 814
e 623 901
e 623 915
e 624 729
e 624 632
e 624 636
e 624 800
e 625 631
e 625 662
e 625 920
e 627 840
e 627 807
e 628 963
e 628 986
e 628 725
e 628 794
e 629 724
e 629 741
e 629 766
e 630 927
e 630 739
e 631 883
e 631 940
e 631 745
e 631 856
e 633 816
e 634 657
e 634 837
e 635 720
e 635 817
e 636 692
e 636 899
e 637 926
e 637 793
e 638 801
e 638 891
e 640 907
e 640 782
e 641 678
e 642 669
e 642 905
e 644 910
e 647 691
e 647 863
e 648 751
e 649 849
e 650 856
e 652 944
e 652 963
e 653 726
e 654 957
e 654 787
e 655 683
e 655 978
e 655 714
e 655 779
e 656 928
e 656 781
e 656 848
e 657 870
e 657 883
e 660 984
e 662 907
e 662 866
e 662 831
e 662 706
e 662 902
e 663 957
e 664 792
e 664 798
e 666 680
e 668 948
e 669 950
e 669 826
e 671 940
e 671 708
e 673 739
e 673 907
e 675 697
e 675 746
e 676 813
e 676 944
e 677 829
e 677 917
e 677 778
e 677 896
e 677 877
e 680 856
e 681 755
e 681 959
e 681 934
e 682 914
e 682 708
e 683 905
e 684 833
e 686 989
e 687 760
e 687 772
e 688 893
e 688 860
e 688 941
e 689 790
e 690 861
e 691 709
e 691 837
e 691 747
e 693 722
e 693 820
e 697 819
e 697 787
e 697 782
e 698 998
e 698 736
e 699 820
e 701 900
e 704 763
e 704 735
e 706 848
e 707 814
e 708 856
e 708 931
e 709 737
e 709 926
e 710 836
e 710 903
e 715 896
e 717 761
e 718 959
e 718 744
e 718 784
e 720 996
e 720 897
e 722 776
e 723 772
e 724 876
e 725 885
e 726 892
e 727 802
e 727 785
e 727 958
e 729 881
e 729 843
e 729 735
e 729 774
e 729 891
e 730 941
e 730 883
e 731 979
e 731 805
e 731 965
e 733 915
e 735 932
e 736 946
e 736 890
e 738 770
e 738 851
e 739 863
e 742 982
e 747 968
e 747 778
e 749 854
e 749 799
e 750 815
e 750 907
e 751 843
e 752 851
e 753 867
e 754 949
e 754 990
e 755 918
e 757 845
e 759 865
e 760 836
e 761 952
e 761 766
e 764 903
e 764 914
e 765 800
e 765 918
e 767 833
e 768 961
e 768 849
e 770 896
e 772 891
e 777 882
e 777 900
e 779 883
e 780 806
e 781 956
e 781 951
e 782 861
e 783 798
e 785 925
e 786 902
e 788 989
e 788 963
e 789 975
e 789 914
e 791 959
e 791 912
e 791 845
e 792 835
e 792 933
e 793 982
e 793 958
e 794 946
e 794 859
e 799 862
e 805 853
e 805 967
e 807 820
e 809 922
e 811 814
e 813 896
e 814 842
e 814 854
e 815 844
e 817 844
e 817 987
e 819 835
e 820 997
e 820 983
e 820 952
e 822 893
e 822 979
e 825 902
e 825 918
e 826 993
e 829 891
e 833 852
e 835 895
e 841 924
e 842 970
e 842 857
e 843 846
e 845 949
e 848 949
e 849 931
e 854 911
e 856 866
e 856 939
e 858 892
e 859 934
e 862 877
e 863 951
e 867 902
e 870 908
e 870 979
e 876 881
e 877 952
e 885 927
e 888 960
e 892 917
e 895 901
e 897 920
e 899 914
e 899 952
e 899 996
e 903 968
e 908 934
e 918 986
e 924 974
e 930 943
e 934 956
e 935 962
e 935 951
e 937 950
e 943 998
e 946 988
e 947 972
e 956 972
e 963 983
e 970 984
